NAME: tsp_458
COMMENT: Random TSP instance
TYPE: TSP
DIMENSION: 50
EDGE_WEIGHT_TYPE: EUC_2D
NODE_COORD_SECTION
1 167 685
2 867 964
3 196 230
4 236 279
5 26 202
6 250 583
7 159 652
8 383 367
9 866 428
10 429 423
11 401 404
12 851 602
13 696 57
14 349 976
15 937 791
16 536 126
17 581 694
18 159 115
19 68 606
20 150 81
21 929 770
22 113 938
23 830 317
24 173 68
25 586 453
26 586 895
27 260 51
28 591 174
29 651 207
30 119 307
31 161 958
32 970 971
33 836 28
34 129 896
35 865 147
36 517 72
37 691 503
38 777 640
39 931 738
40 921 376
41 313 795
42 723 104
43 714 886
44 764 636
45 174 893
46 995 922
47 310 42
48 27 297
49 360 76
50 364 917
